p cnf 251 612
117 0
-1 117 0
1 -117 0
118 -46 45 -92 0
-118 46 0
-118 -45 0
-118 92 0
119 -80 79 -99 0
-119 80 0
-119 -79 0
-119 99 0
120 -3 2 0
-120 3 0
-120 -2 0
121 -72 70 69 -93 0
-121 72 0
-121 -70 0
-121 -69 0
-121 93 0
122 -58 56 55 -95 0
-122 58 0
-122 -56 0
-122 -55 0
-122 95 0
123 -88 86 85 -94 0
-123 88 0
-123 -86 0
-123 -85 0
-123 94 0
124 -67 66 65 -100 0
-124 67 0
-124 -66 0
-124 -65 0
-124 100 0
125 -76 75 -98 0
-125 76 0
-125 -75 0
-125 98 0
126 -62 60 59 -96 0
-126 62 0
-126 -60 0
-126 -59 0
-126 96 0
127 -42 40 39 -97 0
-127 42 0
-127 -40 0
-127 -39 0
-127 97 0
-4 118 119 120 121 122 123 124 125 126 127 0
4 -118 0
4 -119 0
4 -120 0
4 -121 0
4 -122 0
4 -123 0
4 -124 0
4 -125 0
4 -126 0
4 -127 0
128 -3 0
-128 3 0
129 -5 0
-129 5 0
-6 128 129 0
6 -128 0
6 -129 0
130 -106 0
-130 106 0
131 -84 81 79 -21 0
-131 84 0
-131 -81 0
-131 -79 0
-131 21 0
-7 130 131 0
7 -130 0
7 -131 0
132 -9 0
-132 9 0
133 -11 0
-133 11 0
-10 132 133 0
10 -132 0
10 -133 0
134 -116 0
-134 116 0
135 -60 59 -15 0
-135 60 0
-135 -59 0
-135 15 0
-12 134 135 0
12 -134 0
12 -135 0
136 -10 0
-136 10 0
137 -14 0
-137 14 0
-13 136 137 0
13 -136 0
13 -137 0
138 -70 69 -108 0
-138 70 0
-138 -69 0
-138 108 0
139 -14 10 8 -4 0
-139 14 0
-139 -10 0
-139 -8 0
-139 4 0
140 -50 47 45 -116 0
-140 50 0
-140 -47 0
-140 -45 0
-140 116 0
141 -96 0
-141 96 0
-15 138 139 140 141 0
15 -138 0
15 -139 0
15 -140 0
15 -141 0
142 -17 0
-142 17 0
143 -13 0
-143 13 0
-16 142 143 0
16 -142 0
16 -143 0
144 -107 0
-144 107 0
145 -73 71 69 -29 0
-145 73 0
-145 -71 0
-145 -69 0
-145 29 0
-18 144 145 0
18 -144 0
18 -145 0
146 -20 0
-146 20 0
147 -16 0
-147 16 0
-19 146 147 0
19 -146 0
19 -147 0
148 -109 0
-148 109 0
149 -86 85 -32 0
-149 86 0
-149 -85 0
-149 32 0
-21 148 149 0
21 -148 0
21 -149 0
150 -23 0
-150 23 0
151 -19 0
-151 19 0
-22 150 151 0
22 -150 0
22 -151 0
152 -110 0
-152 110 0
153 -48 46 45 -12 0
-153 48 0
-153 -46 0
-153 -45 0
-153 12 0
-24 152 153 0
24 -152 0
24 -153 0
154 -22 0
-154 22 0
155 -26 0
-155 26 0
-25 154 155 0
25 -154 0
25 -155 0
156 -28 0
-156 28 0
157 -25 0
-157 25 0
-27 156 157 0
27 -156 0
27 -157 0
158 -63 61 59 -15 0
-158 63 0
-158 -61 0
-158 -59 0
-158 15 0
159 -108 0
-159 108 0
-29 158 159 0
29 -158 0
29 -159 0
160 -27 0
-160 27 0
161 -31 0
-161 31 0
-30 160 161 0
30 -160 0
30 -161 0
162 -114 0
-162 114 0
163 -54 51 45 -12 0
-163 54 0
-163 -51 0
-163 -45 0
-163 12 0
-32 162 163 0
32 -162 0
32 -163 0
164 -34 0
-164 34 0
165 -30 0
-165 30 0
-33 164 165 0
33 -164 0
33 -165 0
166 -52 49 45 -12 0
-166 52 0
-166 -49 0
-166 -45 0
-166 12 0
167 -103 0
-167 103 0
-35 166 167 0
35 -166 0
35 -167 0
168 -36 0
-168 36 0
169 -33 0
-169 33 0
-37 168 169 0
37 -168 0
37 -169 0
170 -36 33 8 -4 0
-170 36 0
-170 -33 0
-170 -8 0
-170 4 0
-38 170 0
38 -170 0
171 -40 0
-171 40 0
172 -42 0
-172 42 0
-41 171 172 0
41 -171 0
41 -172 0
173 -44 0
-173 44 0
174 -41 0
-174 41 0
-43 173 174 0
43 -173 0
43 -174 0
175 -46 0
-175 46 0
176 -48 0
-176 48 0
-47 175 176 0
47 -175 0
47 -176 0
177 -47 0
-177 47 0
178 -50 0
-178 50 0
-49 177 178 0
49 -177 0
49 -178 0
179 -52 0
-179 52 0
180 -49 0
-180 49 0
-51 179 180 0
51 -179 0
51 -180 0
181 -51 0
-181 51 0
182 -54 0
-182 54 0
-53 181 182 0
53 -181 0
53 -182 0
183 -56 0
-183 56 0
184 -58 0
-184 58 0
-57 183 184 0
57 -183 0
57 -184 0
185 -60 0
-185 60 0
186 -62 0
-186 62 0
-61 185 186 0
61 -185 0
61 -186 0
187 -61 0
-187 61 0
188 -63 0
-188 63 0
-64 187 188 0
64 -187 0
64 -188 0
189 -67 0
-189 67 0
190 -66 0
-190 66 0
-68 189 190 0
68 -189 0
68 -190 0
191 -70 0
-191 70 0
192 -72 0
-192 72 0
-71 191 192 0
71 -191 0
71 -192 0
193 -71 0
-193 71 0
194 -73 0
-194 73 0
-74 193 194 0
74 -193 0
74 -194 0
195 -76 0
-195 76 0
196 -78 0
-196 78 0
-77 195 196 0
77 -195 0
77 -196 0
197 -80 0
-197 80 0
198 -82 0
-198 82 0
-81 197 198 0
81 -197 0
81 -198 0
199 -81 0
-199 81 0
200 -84 0
-200 84 0
-83 199 200 0
83 -199 0
83 -200 0
201 -88 0
-201 88 0
202 -86 0
-202 86 0
-87 201 202 0
87 -201 0
87 -202 0
203 -90 0
-203 90 0
204 -87 0
-204 87 0
-89 203 204 0
89 -203 0
89 -204 0
205 -60 59 -115 0
-205 60 0
-205 -59 0
-205 115 0
206 -90 87 85 -112 0
-206 90 0
-206 -87 0
-206 -85 0
-206 112 0
207 -56 55 -113 0
-207 56 0
-207 -55 0
-207 113 0
208 -66 65 -104 0
-208 66 0
-208 -65 0
-208 104 0
-92 205 206 207 208 0
92 -205 0
92 -206 0
92 -207 0
92 -208 0
209 -63 61 59 -96 0
-209 63 0
-209 -61 0
-209 -59 0
-209 96 0
210 -111 0
-210 111 0
-93 209 210 0
93 -209 0
93 -210 0
211 -112 0
-211 112 0
212 -54 51 45 -92 0
-212 54 0
-212 -51 0
-212 -45 0
-212 92 0
-94 211 212 0
94 -211 0
94 -212 0
213 -113 0
-213 113 0
214 -48 46 45 -92 0
-214 48 0
-214 -46 0
-214 -45 0
-214 92 0
-95 213 214 0
95 -213 0
95 -214 0
215 -115 0
-215 115 0
216 -50 47 45 -92 0
-216 50 0
-216 -47 0
-216 -45 0
-216 92 0
-96 215 216 0
96 -215 0
96 -216 0
217 -101 0
-217 101 0
218 -84 81 79 -99 0
-218 84 0
-218 -81 0
-218 -79 0
-218 99 0
-97 217 218 0
97 -217 0
97 -218 0
219 -102 0
-219 102 0
220 -73 71 69 -93 0
-220 73 0
-220 -71 0
-220 -69 0
-220 93 0
-98 219 220 0
98 -219 0
98 -220 0
221 -105 0
-221 105 0
222 -86 85 -94 0
-222 86 0
-222 -85 0
-222 94 0
-99 221 222 0
99 -221 0
99 -222 0
223 -104 0
-223 104 0
224 -52 49 45 -92 0
-224 52 0
-224 -49 0
-224 -45 0
-224 92 0
-100 223 224 0
100 -223 0
100 -224 0
225 -5 3 2 0
-225 5 0
-225 -3 0
-225 -2 0
-101 225 0
101 -225 0
-102 0
226 -100 0
-226 100 0
227 -34 30 8 -4 0
-227 34 0
-227 -30 0
-227 -8 0
-227 4 0
-103 226 227 0
103 -226 0
103 -227 0
-104 0
228 -44 41 39 -101 0
-228 44 0
-228 -41 0
-228 -39 0
-228 101 0
-105 228 0
105 -228 0
229 -97 0
-229 97 0
230 -26 22 8 -4 0
-230 26 0
-230 -22 0
-230 -8 0
-230 4 0
-106 229 230 0
106 -229 0
106 -230 0
231 -98 0
-231 98 0
232 -17 13 8 -4 0
-232 17 0
-232 -13 0
-232 -8 0
-232 4 0
-107 231 232 0
107 -231 0
107 -232 0
233 -28 25 8 -4 0
-233 28 0
-233 -25 0
-233 -8 0
-233 4 0
234 -78 76 75 -107 0
-234 78 0
-234 -76 0
-234 -75 0
-234 107 0
235 -93 0
-235 93 0
-108 233 234 235 0
108 -233 0
108 -234 0
108 -235 0
236 -99 0
-236 99 0
237 -20 16 8 -4 0
-237 20 0
-237 -16 0
-237 -8 0
-237 4 0
238 -44 41 39 -106 0
-238 44 0
-238 -41 0
-238 -39 0
-238 106 0
-109 236 237 238 0
109 -236 0
109 -237 0
109 -238 0
239 -23 19 8 -4 0
-239 23 0
-239 -19 0
-239 -8 0
-239 4 0
240 -95 0
-240 95 0
-110 239 240 0
110 -239 0
110 -240 0
241 -78 76 75 -102 0
-241 78 0
-241 -76 0
-241 -75 0
-241 102 0
-111 241 0
111 -241 0
242 -82 80 79 -105 0
-242 82 0
-242 -80 0
-242 -79 0
-242 105 0
-112 242 0
112 -242 0
-113 0
243 -94 0
-243 94 0
244 -82 80 79 -109 0
-244 82 0
-244 -80 0
-244 -79 0
-244 109 0
245 -31 27 8 -4 0
-245 31 0
-245 -27 0
-245 -8 0
-245 4 0
-114 243 244 245 0
114 -243 0
114 -244 0
114 -245 0
246 -70 69 -111 0
-246 70 0
-246 -69 0
-246 111 0
-115 246 0
115 -246 0
247 -11 9 8 -4 0
-247 11 0
-247 -9 0
-247 -8 0
-247 4 0
248 -66 65 -103 0
-248 66 0
-248 -65 0
-248 103 0
249 -90 87 85 -114 0
-249 90 0
-249 -87 0
-249 -85 0
-249 114 0
250 -56 55 -110 0
-250 56 0
-250 -55 0
-250 110 0
251 -92 0
-251 92 0
-116 247 248 249 250 251 0
116 -247 0
116 -248 0
116 -249 0
116 -250 0
116 -251 0
c p weight 1 1.0 0
c p weight -1 1.0 0
c p weight 2 0.1 0
c p weight -2 0.9 0
c p weight 3 0.3333333333333333 0
c p weight -3 0.6666666666666667 0
c p weight 4 1.0 0
c p weight -4 1.0 0
c p weight 5 0.49999999999999994 0
c p weight -5 0.5 0
c p weight 6 1.0 0
c p weight -6 1.0 0
c p weight 7 1.0 0
c p weight -7 1.0 0
c p weight 8 0.1 0
c p weight -8 0.9 0
c p weight 9 0.08333333333333333 0
c p weight -9 0.9166666666666666 0
c p weight 10 1.0 0
c p weight -10 1.0 0
c p weight 11 0.09090909090909091 0
c p weight -11 0.9090909090909091 0
c p weight 12 1.0 0
c p weight -12 1.0 0
c p weight 13 1.0 0
c p weight -13 1.0 0
c p weight 14 0.1 0
c p weight -14 0.9 0
c p weight 15 1.0 0
c p weight -15 1.0 0
c p weight 16 1.0 0
c p weight -16 1.0 0
c p weight 17 0.11111111111111112 0
c p weight -17 0.8888888888888888 0
c p weight 18 1.0 0
c p weight -18 1.0 0
c p weight 19 1.0 0
c p weight -19 1.0 0
c p weight 20 0.12500000000000003 0
c p weight -20 0.875 0
c p weight 21 1.0 0
c p weight -21 1.0 0
c p weight 22 1.0 0
c p weight -22 1.0 0
c p weight 23 0.1428571428571429 0
c p weight -23 0.8571428571428571 0
c p weight 24 1.0 0
c p weight -24 1.0 0
c p weight 25 1.0 0
c p weight -25 1.0 0
c p weight 26 0.1666666666666667 0
c p weight -26 0.8333333333333333 0
c p weight 27 1.0 0
c p weight -27 1.0 0
c p weight 28 0.20000000000000007 0
c p weight -28 0.7999999999999999 0
c p weight 29 1.0 0
c p weight -29 1.0 0
c p weight 30 1.0 0
c p weight -30 1.0 0
c p weight 31 0.2500000000000001 0
c p weight -31 0.7499999999999999 0
c p weight 32 1.0 0
c p weight -32 1.0 0
c p weight 33 1.0 0
c p weight -33 1.0 0
c p weight 34 0.3333333333333335 0
c p weight -34 0.6666666666666665 0
c p weight 35 1.0 0
c p weight -35 1.0 0
c p weight 36 0.5000000000000002 0
c p weight -36 0.4999999999999998 0
c p weight 37 1.0 0
c p weight -37 1.0 0
c p weight 38 1.0 0
c p weight -38 0.0 0
c p weight 39 0.1 0
c p weight -39 0.9 0
c p weight 40 0.25 0
c p weight -40 0.75 0
c p weight 41 1.0 0
c p weight -41 1.0 0
c p weight 42 0.3333333333333333 0
c p weight -42 0.6666666666666667 0
c p weight 43 1.0 0
c p weight -43 1.0 0
c p weight 44 0.5 0
c p weight -44 0.5 0
c p weight 45 0.1 0
c p weight -45 0.9 0
c p weight 46 0.16666666666666666 0
c p weight -46 0.8333333333333334 0
c p weight 47 1.0 0
c p weight -47 1.0 0
c p weight 48 0.19999999999999998 0
c p weight -48 0.8 0
c p weight 49 1.0 0
c p weight -49 1.0 0
c p weight 50 0.24999999999999997 0
c p weight -50 0.75 0
c p weight 51 1.0 0
c p weight -51 1.0 0
c p weight 52 0.33333333333333326 0
c p weight -52 0.6666666666666667 0
c p weight 53 1.0 0
c p weight -53 1.0 0
c p weight 54 0.4999999999999998 0
c p weight -54 0.5000000000000002 0
c p weight 55 0.1 0
c p weight -55 0.9 0
c p weight 56 0.3333333333333333 0
c p weight -56 0.6666666666666667 0
c p weight 57 1.0 0
c p weight -57 1.0 0
c p weight 58 0.49999999999999994 0
c p weight -58 0.5 0
c p weight 59 0.1 0
c p weight -59 0.9 0
c p weight 60 0.25 0
c p weight -60 0.75 0
c p weight 61 1.0 0
c p weight -61 1.0 0
c p weight 62 0.3333333333333333 0
c p weight -62 0.6666666666666667 0
c p weight 63 0.5 0
c p weight -63 0.5 0
c p weight 64 1.0 0
c p weight -64 1.0 0
c p weight 65 0.1 0
c p weight -65 0.9 0
c p weight 66 0.3333333333333333 0
c p weight -66 0.6666666666666667 0
c p weight 67 0.49999999999999994 0
c p weight -67 0.5 0
c p weight 68 1.0 0
c p weight -68 1.0 0
c p weight 69 0.1 0
c p weight -69 0.9 0
c p weight 70 0.25 0
c p weight -70 0.75 0
c p weight 71 1.0 0
c p weight -71 1.0 0
c p weight 72 0.3333333333333333 0
c p weight -72 0.6666666666666667 0
c p weight 73 0.5 0
c p weight -73 0.5 0
c p weight 74 1.0 0
c p weight -74 1.0 0
c p weight 75 0.1 0
c p weight -75 0.9 0
c p weight 76 0.3333333333333333 0
c p weight -76 0.6666666666666667 0
c p weight 77 1.0 0
c p weight -77 1.0 0
c p weight 78 0.49999999999999994 0
c p weight -78 0.5 0
c p weight 79 0.1 0
c p weight -79 0.9 0
c p weight 80 0.25 0
c p weight -80 0.75 0
c p weight 81 1.0 0
c p weight -81 1.0 0
c p weight 82 0.3333333333333333 0
c p weight -82 0.6666666666666667 0
c p weight 83 1.0 0
c p weight -83 1.0 0
c p weight 84 0.5 0
c p weight -84 0.5 0
c p weight 85 0.1 0
c p weight -85 0.9 0
c p weight 86 0.25 0
c p weight -86 0.75 0
c p weight 87 1.0 0
c p weight -87 1.0 0
c p weight 88 0.3333333333333333 0
c p weight -88 0.6666666666666667 0
c p weight 89 1.0 0
c p weight -89 1.0 0
c p weight 90 0.5 0
c p weight -90 0.5 0
c p weight 91 0.1 0
c p weight -91 0.9 0
c p weight 92 1.0 0
c p weight -92 1.0 0
c p weight 93 1.0 0
c p weight -93 1.0 0
c p weight 94 1.0 0
c p weight -94 1.0 0
c p weight 95 1.0 0
c p weight -95 1.0 0
c p weight 96 1.0 0
c p weight -96 1.0 0
c p weight 97 1.0 0
c p weight -97 1.0 0
c p weight 98 1.0 0
c p weight -98 1.0 0
c p weight 99 1.0 0
c p weight -99 1.0 0
c p weight 100 1.0 0
c p weight -100 1.0 0
c p weight 101 1.0 0
c p weight -101 1.0 0
c p weight 102 1.0 0
c p weight -102 1.0 0
c p weight 103 1.0 0
c p weight -103 1.0 0
c p weight 104 1.0 0
c p weight -104 1.0 0
c p weight 105 1.0 0
c p weight -105 1.0 0
c p weight 106 1.0 0
c p weight -106 1.0 0
c p weight 107 1.0 0
c p weight -107 1.0 0
c p weight 108 1.0 0
c p weight -108 1.0 0
c p weight 109 1.0 0
c p weight -109 1.0 0
c p weight 110 1.0 0
c p weight -110 1.0 0
c p weight 111 1.0 0
c p weight -111 1.0 0
c p weight 112 1.0 0
c p weight -112 1.0 0
c p weight 113 1.0 0
c p weight -113 1.0 0
c p weight 114 1.0 0
c p weight -114 1.0 0
c p weight 115 1.0 0
c p weight -115 1.0 0
c p weight 116 1.0 0
c p weight -116 1.0 0
c p weight 117 1.0 0
c p weight -117 1.0 0
c p weight 118 1.0 0
c p weight -118 1.0 0
c p weight 119 1.0 0
c p weight -119 1.0 0
c p weight 120 1.0 0
c p weight -120 1.0 0
c p weight 121 1.0 0
c p weight -121 1.0 0
c p weight 122 1.0 0
c p weight -122 1.0 0
c p weight 123 1.0 0
c p weight -123 1.0 0
c p weight 124 1.0 0
c p weight -124 1.0 0
c p weight 125 1.0 0
c p weight -125 1.0 0
c p weight 126 1.0 0
c p weight -126 1.0 0
c p weight 127 1.0 0
c p weight -127 1.0 0
c p weight 128 1.0 0
c p weight -128 1.0 0
c p weight 129 1.0 0
c p weight -129 1.0 0
c p weight 130 1.0 0
c p weight -130 1.0 0
c p weight 131 1.0 0
c p weight -131 1.0 0
c p weight 132 1.0 0
c p weight -132 1.0 0
c p weight 133 1.0 0
c p weight -133 1.0 0
c p weight 134 1.0 0
c p weight -134 1.0 0
c p weight 135 1.0 0
c p weight -135 1.0 0
c p weight 136 1.0 0
c p weight -136 1.0 0
c p weight 137 1.0 0
c p weight -137 1.0 0
c p weight 138 1.0 0
c p weight -138 1.0 0
c p weight 139 1.0 0
c p weight -139 1.0 0
c p weight 140 1.0 0
c p weight -140 1.0 0
c p weight 141 1.0 0
c p weight -141 1.0 0
c p weight 142 1.0 0
c p weight -142 1.0 0
c p weight 143 1.0 0
c p weight -143 1.0 0
c p weight 144 1.0 0
c p weight -144 1.0 0
c p weight 145 1.0 0
c p weight -145 1.0 0
c p weight 146 1.0 0
c p weight -146 1.0 0
c p weight 147 1.0 0
c p weight -147 1.0 0
c p weight 148 1.0 0
c p weight -148 1.0 0
c p weight 149 1.0 0
c p weight -149 1.0 0
c p weight 150 1.0 0
c p weight -150 1.0 0
c p weight 151 1.0 0
c p weight -151 1.0 0
c p weight 152 1.0 0
c p weight -152 1.0 0
c p weight 153 1.0 0
c p weight -153 1.0 0
c p weight 154 1.0 0
c p weight -154 1.0 0
c p weight 155 1.0 0
c p weight -155 1.0 0
c p weight 156 1.0 0
c p weight -156 1.0 0
c p weight 157 1.0 0
c p weight -157 1.0 0
c p weight 158 1.0 0
c p weight -158 1.0 0
c p weight 159 1.0 0
c p weight -159 1.0 0
c p weight 160 1.0 0
c p weight -160 1.0 0
c p weight 161 1.0 0
c p weight -161 1.0 0
c p weight 162 1.0 0
c p weight -162 1.0 0
c p weight 163 1.0 0
c p weight -163 1.0 0
c p weight 164 1.0 0
c p weight -164 1.0 0
c p weight 165 1.0 0
c p weight -165 1.0 0
c p weight 166 1.0 0
c p weight -166 1.0 0
c p weight 167 1.0 0
c p weight -167 1.0 0
c p weight 168 1.0 0
c p weight -168 1.0 0
c p weight 169 1.0 0
c p weight -169 1.0 0
c p weight 170 1.0 0
c p weight -170 1.0 0
c p weight 171 1.0 0
c p weight -171 1.0 0
c p weight 172 1.0 0
c p weight -172 1.0 0
c p weight 173 1.0 0
c p weight -173 1.0 0
c p weight 174 1.0 0
c p weight -174 1.0 0
c p weight 175 1.0 0
c p weight -175 1.0 0
c p weight 176 1.0 0
c p weight -176 1.0 0
c p weight 177 1.0 0
c p weight -177 1.0 0
c p weight 178 1.0 0
c p weight -178 1.0 0
c p weight 179 1.0 0
c p weight -179 1.0 0
c p weight 180 1.0 0
c p weight -180 1.0 0
c p weight 181 1.0 0
c p weight -181 1.0 0
c p weight 182 1.0 0
c p weight -182 1.0 0
c p weight 183 1.0 0
c p weight -183 1.0 0
c p weight 184 1.0 0
c p weight -184 1.0 0
c p weight 185 1.0 0
c p weight -185 1.0 0
c p weight 186 1.0 0
c p weight -186 1.0 0
c p weight 187 1.0 0
c p weight -187 1.0 0
c p weight 188 1.0 0
c p weight -188 1.0 0
c p weight 189 1.0 0
c p weight -189 1.0 0
c p weight 190 1.0 0
c p weight -190 1.0 0
c p weight 191 1.0 0
c p weight -191 1.0 0
c p weight 192 1.0 0
c p weight -192 1.0 0
c p weight 193 1.0 0
c p weight -193 1.0 0
c p weight 194 1.0 0
c p weight -194 1.0 0
c p weight 195 1.0 0
c p weight -195 1.0 0
c p weight 196 1.0 0
c p weight -196 1.0 0
c p weight 197 1.0 0
c p weight -197 1.0 0
c p weight 198 1.0 0
c p weight -198 1.0 0
c p weight 199 1.0 0
c p weight -199 1.0 0
c p weight 200 1.0 0
c p weight -200 1.0 0
c p weight 201 1.0 0
c p weight -201 1.0 0
c p weight 202 1.0 0
c p weight -202 1.0 0
c p weight 203 1.0 0
c p weight -203 1.0 0
c p weight 204 1.0 0
c p weight -204 1.0 0
c p weight 205 1.0 0
c p weight -205 1.0 0
c p weight 206 1.0 0
c p weight -206 1.0 0
c p weight 207 1.0 0
c p weight -207 1.0 0
c p weight 208 1.0 0
c p weight -208 1.0 0
c p weight 209 1.0 0
c p weight -209 1.0 0
c p weight 210 1.0 0
c p weight -210 1.0 0
c p weight 211 1.0 0
c p weight -211 1.0 0
c p weight 212 1.0 0
c p weight -212 1.0 0
c p weight 213 1.0 0
c p weight -213 1.0 0
c p weight 214 1.0 0
c p weight -214 1.0 0
c p weight 215 1.0 0
c p weight -215 1.0 0
c p weight 216 1.0 0
c p weight -216 1.0 0
c p weight 217 1.0 0
c p weight -217 1.0 0
c p weight 218 1.0 0
c p weight -218 1.0 0
c p weight 219 1.0 0
c p weight -219 1.0 0
c p weight 220 1.0 0
c p weight -220 1.0 0
c p weight 221 1.0 0
c p weight -221 1.0 0
c p weight 222 1.0 0
c p weight -222 1.0 0
c p weight 223 1.0 0
c p weight -223 1.0 0
c p weight 224 1.0 0
c p weight -224 1.0 0
c p weight 225 1.0 0
c p weight -225 1.0 0
c p weight 226 1.0 0
c p weight -226 1.0 0
c p weight 227 1.0 0
c p weight -227 1.0 0
c p weight 228 1.0 0
c p weight -228 1.0 0
c p weight 229 1.0 0
c p weight -229 1.0 0
c p weight 230 1.0 0
c p weight -230 1.0 0
c p weight 231 1.0 0
c p weight -231 1.0 0
c p weight 232 1.0 0
c p weight -232 1.0 0
c p weight 233 1.0 0
c p weight -233 1.0 0
c p weight 234 1.0 0
c p weight -234 1.0 0
c p weight 235 1.0 0
c p weight -235 1.0 0
c p weight 236 1.0 0
c p weight -236 1.0 0
c p weight 237 1.0 0
c p weight -237 1.0 0
c p weight 238 1.0 0
c p weight -238 1.0 0
c p weight 239 1.0 0
c p weight -239 1.0 0
c p weight 240 1.0 0
c p weight -240 1.0 0
c p weight 241 1.0 0
c p weight -241 1.0 0
c p weight 242 1.0 0
c p weight -242 1.0 0
c p weight 243 1.0 0
c p weight -243 1.0 0
c p weight 244 1.0 0
c p weight -244 1.0 0
c p weight 245 1.0 0
c p weight -245 1.0 0
c p weight 246 1.0 0
c p weight -246 1.0 0
c p weight 247 1.0 0
c p weight -247 1.0 0
c p weight 248 1.0 0
c p weight -248 1.0 0
c p weight 249 1.0 0
c p weight -249 1.0 0
c p weight 250 1.0 0
c p weight -250 1.0 0
c p weight 251 1.0 0
c p weight -251 1.0 0
c p semirings aspmc.semirings.probabilistic 0
c p quantify 1 2 3 4 5 6 7 8 9 10 11 12 13 14 15 16 17 18 19 20 21 22 23 24 25 26 27 28 29 30 31 32 33 34 35 36 37 38 39 40 41 42 43 44 45 46 47 48 49 50 51 52 53 54 55 56 57 58 59 60 61 62 63 64 65 66 67 68 69 70 71 72 73 74 75 76 77 78 79 80 81 82 83 84 85 86 87 88 89 90 91 92 93 94 95 96 97 98 99 100 101 102 103 104 105 106 107 108 109 110 111 112 113 114 115 116 117 118 119 120 121 122 123 124 125 126 127 128 129 130 131 132 133 134 135 136 137 138 139 140 141 142 143 144 145 146 147 148 149 150 151 152 153 154 155 156 157 158 159 160 161 162 163 164 165 166 167 168 169 170 171 172 173 174 175 176 177 178 179 180 181 182 183 184 185 186 187 188 189 190 191 192 193 194 195 196 197 198 199 200 201 202 203 204 205 206 207 208 209 210 211 212 213 214 215 216 217 218 219 220 221 222 223 224 225 226 227 228 229 230 231 232 233 234 235 236 237 238 239 240 241 242 243 244 245 246 247 248 249 250 251 0
c p auxilliary 1 4 6 7 10 12 13 15 16 18 19 21 22 24 25 27 29 30 32 33 35 37 41 43 47 49 51 53 57 61 64 68 71 74 77 81 83 87 89 92 93 94 95 96 97 98 99 100 101 102 103 104 105 106 107 108 109 110 111 112 113 114 115 116 117 118 119 120 121 122 123 124 125 126 127 128 129 130 131 132 133 134 135 136 137 138 139 140 141 142 143 144 145 146 147 148 149 150 151 152 153 154 155 156 157 158 159 160 161 162 163 164 165 166 167 168 169 170 171 172 173 174 175 176 177 178 179 180 181 182 183 184 185 186 187 188 189 190 191 192 193 194 195 196 197 198 199 200 201 202 203 204 205 206 207 208 209 210 211 212 213 214 215 216 217 218 219 220 221 222 223 224 225 226 227 228 229 230 231 232 233 234 235 236 237 238 239 240 241 242 243 244 245 246 247 248 249 250 251 0
